benchmark/results/graph__15-1000-0.10-02_8/graph__15-1000-0.10-02_8_Quinton_Benders_sub.lp
\ This file has been generated by DOcplex
\ ENCODING=ISO-8859-1
\Problem name: Quinton Benders_dual_sub

Minimize
 obj: 0.000892857143 pi_nr_a0 + 0.001182033097 pi_nr_a1
      + 0.001280409731 pi_nr_a2 + 0.000952380952 pi_nr_a3
      + 0.001165501166 pi_nr_a4 + 0.000949667616 pi_nr_a5
      + 0.001153402537 pi_nr_a6 + 0.000938086304 pi_nr_a7
      + 0.000910746812 pi_nr_a8 + 0.000959692898 pi_nr_a9
      + 0.000954198473 pi_nr_a10 + 0.001154734411 pi_nr_a11
      + 0.000786782061 pi_nr_a12 + 0.001824817518 pi_nr_a13
      + 0.000834028357 pi_nr_a14 + pi_p_a0_a1 + pi_p_a1_a2 + pi_p_a5_a0
      + pi_p_a7_a12 + pi_p_a13_a12 + pi_p_a8_a9 + pi_p_a4_a9 + pi_p_a8_a12
      + pi_p_a8_a0 + pi_p_a4_a10 + pi_p_a6_a1 + pi_p_a14_a14 + pi_p_a11_a14
      + 2583 pi_d_a0_a1_proc_0 + pi_d_a0_a1_proc_1 + 2582 pi_d_a1_a0_proc_0
      + 2583 pi_d_a0_a2_proc_0 + 2583 pi_d_a0_a2_proc_1 + pi_d_a0_a3_proc_0
      + pi_d_a0_a3_proc_1 + 2582 pi_d_a3_a0_proc_0 + 2582 pi_d_a3_a0_proc_1
      + 2582 pi_d_a0_a4_proc_0 + 2583 pi_d_a4_a0_proc_0 + pi_d_a4_a0_proc_1
      + 2582 pi_d_a0_a5_proc_0 + 2583 pi_d_a5_a0_proc_0 + pi_d_a5_a0_proc_1
      + 2583 pi_d_a0_a6_proc_0 + pi_d_a0_a6_proc_1 + 2582 pi_d_a6_a0_proc_0
      + 2582 pi_d_a0_a7_proc_0 + pi_d_a7_a0_proc_0 + 2582 pi_d_a0_a8_proc_0
      + pi_d_a8_a0_proc_0 + 2583 pi_d_a0_a9_proc_0 + 2583 pi_d_a10_a0_proc_0
      + 2582 pi_d_a0_a11_proc_0 + 2583 pi_d_a11_a0_proc_0 + pi_d_a11_a0_proc_1
      + 2583 pi_d_a0_a12_proc_0 + 2583 pi_d_a0_a12_proc_1 + pi_d_a13_a0_proc_1
      + pi_d_a14_a0_proc_1 + 2583 pi_d_a1_a2_proc_0 + 2583 pi_d_a1_a2_proc_1
      + pi_d_a1_a3_proc_0 + pi_d_a1_a3_proc_1 + 2582 pi_d_a3_a1_proc_0
      + 2582 pi_d_a3_a1_proc_1 + 2582 pi_d_a1_a4_proc_0 + 2583 pi_d_a4_a1_proc_0
      + pi_d_a4_a1_proc_1 + 2581 pi_d_a1_a5_proc_0 - pi_d_a1_a5_proc_1
      + 2584 pi_d_a5_a1_proc_0 + 2 pi_d_a5_a1_proc_1 + 2582 pi_d_a1_a6_proc_0
      + 2583 pi_d_a6_a1_proc_0 + pi_d_a6_a1_proc_1 + 2582 pi_d_a1_a7_proc_0
      + pi_d_a7_a1_proc_0 + 2582 pi_d_a1_a8_proc_0 + pi_d_a8_a1_proc_0
      + 2583 pi_d_a1_a9_proc_0 + 2582 pi_d_a1_a10_proc_0 + pi_d_a10_a1_proc_0
      + 2582 pi_d_a1_a11_proc_0 + 2583 pi_d_a11_a1_proc_0 + pi_d_a11_a1_proc_1
      + 2 pi_d_a1_a12_proc_0 + 2 pi_d_a1_a12_proc_1 + 2581 pi_d_a12_a1_proc_0
      + 2581 pi_d_a12_a1_proc_1 + pi_d_a13_a1_proc_1 + pi_d_a14_a1_proc_1
      + pi_d_a2_a3_proc_0 + 2583 pi_d_a2_a3_proc_1 + 2582 pi_d_a3_a2_proc_1
      + 2582 pi_d_a2_a4_proc_0 + 2582 pi_d_a2_a4_proc_1 + pi_d_a4_a2_proc_0
      + pi_d_a4_a2_proc_1 - pi_d_a2_a5_proc_0 - pi_d_a2_a5_proc_1
      + 2584 pi_d_a5_a2_proc_0 + 2584 pi_d_a5_a2_proc_1 + 2582 pi_d_a2_a6_proc_0
      + 2582 pi_d_a2_a6_proc_1 + pi_d_a6_a2_proc_0 + pi_d_a6_a2_proc_1
      + pi_d_a7_a2_proc_0 + pi_d_a8_a2_proc_0 + pi_d_a9_a2_proc_0
      + pi_d_a10_a2_proc_0 + 2581 pi_d_a2_a11_proc_0 + 2581 pi_d_a2_a11_proc_1
      + 2 pi_d_a11_a2_proc_0 + 2 pi_d_a11_a2_proc_1 + pi_d_a2_a12_proc_0
      + 2583 pi_d_a2_a12_proc_1 + 2582 pi_d_a12_a2_proc_1
      + 2582 pi_d_a2_a13_proc_1 + pi_d_a13_a2_proc_1 + 2582 pi_d_a2_a14_proc_1
      + pi_d_a14_a2_proc_1 + 2582 pi_d_a3_a4_proc_0 + 2582 pi_d_a3_a4_proc_1
      + pi_d_a4_a3_proc_0 + pi_d_a4_a3_proc_1 + 2581 pi_d_a3_a5_proc_0
      + 2581 pi_d_a3_a5_proc_1 + 2 pi_d_a5_a3_proc_0 + 2 pi_d_a5_a3_proc_1
      + 2583 pi_d_a6_a3_proc_0 + 2583 pi_d_a6_a3_proc_1 + pi_d_a7_a3_proc_0
      + pi_d_a8_a3_proc_0 + pi_d_a9_a3_proc_0 + pi_d_a10_a3_proc_0
      + 2583 pi_d_a11_a3_proc_0 + 2583 pi_d_a11_a3_proc_1 + pi_d_a3_a12_proc_0
      + 2583 pi_d_a3_a12_proc_1 + 2582 pi_d_a12_a3_proc_1
      + 2582 pi_d_a3_a13_proc_1 + pi_d_a13_a3_proc_1 + 2582 pi_d_a3_a14_proc_1
      + pi_d_a14_a3_proc_1 + 2582 pi_d_a4_a5_proc_0 + 2583 pi_d_a5_a4_proc_0
      + pi_d_a5_a4_proc_1 + 2583 pi_d_a4_a6_proc_0 + pi_d_a4_a6_proc_1
      + 2582 pi_d_a6_a4_proc_0 + 2582 pi_d_a4_a7_proc_0 + pi_d_a7_a4_proc_0
      + 2582 pi_d_a4_a8_proc_0 + pi_d_a8_a4_proc_0 + 2583 pi_d_a4_a9_proc_0
      + 2583 pi_d_a4_a10_proc_0 + 2582 pi_d_a4_a11_proc_0
      + 2583 pi_d_a11_a4_proc_0 + pi_d_a11_a4_proc_1 + 2583 pi_d_a4_a12_proc_0
      + 2583 pi_d_a4_a12_proc_1 + pi_d_a13_a4_proc_1 + pi_d_a14_a4_proc_1
      + 2584 pi_d_a5_a6_proc_0 + 2 pi_d_a5_a6_proc_1 + 2581 pi_d_a6_a5_proc_0
      - pi_d_a6_a5_proc_1 + pi_d_a5_a7_proc_0 + 2582 pi_d_a7_a5_proc_0
      + 2583 pi_d_a5_a8_proc_0 + 2584 pi_d_a5_a9_proc_0 - pi_d_a9_a5_proc_0
      + 2583 pi_d_a5_a10_proc_0 + 2583 pi_d_a5_a11_proc_0 + pi_d_a5_a11_proc_1
      + 2582 pi_d_a11_a5_proc_0 + 2 pi_d_a5_a12_proc_0 + 2 pi_d_a5_a12_proc_1
      + 2581 pi_d_a12_a5_proc_0 + 2581 pi_d_a12_a5_proc_1 + pi_d_a5_a13_proc_1
      + pi_d_a5_a14_proc_1 + 2582 pi_d_a6_a7_proc_0 + pi_d_a7_a6_proc_0
      + 2583 pi_d_a8_a6_proc_0 + pi_d_a6_a9_proc_0 + 2582 pi_d_a9_a6_proc_0
      + pi_d_a6_a10_proc_0 + 2582 pi_d_a10_a6_proc_0 + 2582 pi_d_a6_a11_proc_0
      + 2583 pi_d_a11_a6_proc_0 + pi_d_a11_a6_proc_1 + pi_d_a6_a12_proc_0
      + pi_d_a6_a12_proc_1 + 2582 pi_d_a12_a6_proc_0 + 2582 pi_d_a12_a6_proc_1
      + pi_d_a13_a6_proc_1 + pi_d_a14_a6_proc_1 + pi_d_a7_a8_proc_0
      + pi_d_a7_a9_proc_0 + pi_d_a7_a10_proc_0 + 2583 pi_d_a11_a7_proc_0
      + pi_d_a7_a12_proc_0 + pi_d_a8_a9_proc_0 + pi_d_a8_a10_proc_0
      + 2583 pi_d_a11_a8_proc_0 + pi_d_a8_a12_proc_0 + pi_d_a10_a9_proc_0
      + 2582 pi_d_a9_a11_proc_0 + pi_d_a11_a9_proc_0 + pi_d_a9_a12_proc_0
      + 2583 pi_d_a11_a10_proc_0 + pi_d_a10_a12_proc_0
      + 2584 pi_d_a11_a12_proc_0 + 2584 pi_d_a11_a12_proc_1
      - pi_d_a12_a11_proc_0 - pi_d_a12_a11_proc_1 + pi_d_a11_a13_proc_1
      + pi_d_a11_a14_proc_1 + 2582 pi_d_a12_a13_proc_1 + pi_d_a13_a12_proc_1
      + 2582 pi_d_a12_a14_proc_1 + pi_d_a14_a12_proc_1 + pi_d_a13_a14_proc_1
      + pi_y2_a0_proc_1 + pi_y2_a1_proc_1 + pi_y2_a2_proc_0 + pi_y2_a3_proc_0
      + pi_y2_a4_proc_1 + pi_y2_a5_proc_1 + pi_y2_a6_proc_1 + pi_y2_a7_proc_0
      + pi_y2_a8_proc_0 + pi_y2_a9_proc_0 + pi_y2_a10_proc_0 + pi_y2_a11_proc_1
      + pi_y2_a12_proc_0 + pi_y2_a13_proc_1 + pi_y2_a14_proc_1
Subject To
 c1: pi_nr_a0 + pi_nr_a1 + pi_nr_a2 + pi_nr_a3 + pi_nr_a4 + pi_nr_a5 + pi_nr_a6
     + pi_nr_a7 + pi_nr_a8 + pi_nr_a9 + pi_nr_a10 + pi_nr_a11 + pi_nr_a12
     + pi_nr_a13 + pi_nr_a14 - pi_y1_a0 - pi_y1_a1 - pi_y1_a2 - pi_y1_a3
     - pi_y1_a4 - pi_y1_a5 - pi_y1_a6 - pi_y1_a7 - pi_y1_a8 - pi_y1_a9
     - pi_y1_a10 - pi_y1_a11 - pi_y1_a12 - pi_y1_a13 - pi_y1_a14 >= 1
 c2: pi_p_a0_a1 - pi_p_a5_a0 + pi_p_a0_a8 - pi_p_a8_a0 - pi_p_a12_a0
     + pi_d_a0_a1_proc_0 + pi_d_a0_a1_proc_1 - pi_d_a1_a0_proc_0
     - pi_d_a1_a0_proc_1 + pi_d_a0_a2_proc_0 + pi_d_a0_a2_proc_1
     - pi_d_a2_a0_proc_0 - pi_d_a2_a0_proc_1 + pi_d_a0_a3_proc_0
     + pi_d_a0_a3_proc_1 - pi_d_a3_a0_proc_0 - pi_d_a3_a0_proc_1
     + pi_d_a0_a4_proc_0 + pi_d_a0_a4_proc_1 - pi_d_a4_a0_proc_0
     - pi_d_a4_a0_proc_1 + pi_d_a0_a5_proc_0 + pi_d_a0_a5_proc_1
     - pi_d_a5_a0_proc_0 - pi_d_a5_a0_proc_1 + pi_d_a0_a6_proc_0
     + pi_d_a0_a6_proc_1 - pi_d_a6_a0_proc_0 - pi_d_a6_a0_proc_1
     + pi_d_a0_a7_proc_0 - pi_d_a7_a0_proc_0 + pi_d_a0_a8_proc_0
     - pi_d_a8_a0_proc_0 + pi_d_a0_a9_proc_0 - pi_d_a9_a0_proc_0
     + pi_d_a0_a10_proc_0 - pi_d_a10_a0_proc_0 + pi_d_a0_a11_proc_0
     + pi_d_a0_a11_proc_1 - pi_d_a11_a0_proc_0 - pi_d_a11_a0_proc_1
     + pi_d_a0_a12_proc_0 + pi_d_a0_a12_proc_1 - pi_d_a12_a0_proc_0
     - pi_d_a12_a0_proc_1 + pi_d_a0_a13_proc_1 - pi_d_a13_a0_proc_1
     + pi_d_a0_a14_proc_1 - pi_d_a14_a0_proc_1 >= 0
 c3: 1105 pi_p_a0_a1 + 1105 pi_p_a0_a8 + 1105 pi_d_a0_a1_proc_0
     + 1105 pi_d_a0_a2_proc_0 + 1105 pi_d_a0_a3_proc_0 + 1105 pi_d_a0_a4_proc_0
     + 1105 pi_d_a0_a5_proc_0 + 1105 pi_d_a0_a6_proc_0 + 1105 pi_d_a0_a7_proc_0
     + 1105 pi_d_a0_a8_proc_0 + 1105 pi_d_a0_a9_proc_0 + 1105 pi_d_a0_a10_proc_0
     + 1105 pi_d_a0_a11_proc_0 + 1105 pi_d_a0_a12_proc_0 + pi_y1_a0
     + pi_y2_a0_proc_0 >= 0
 c4: 1120 pi_p_a0_a1 + 1120 pi_p_a0_a8 + 1120 pi_d_a0_a1_proc_1
     + 1120 pi_d_a0_a2_proc_1 + 1120 pi_d_a0_a3_proc_1 + 1120 pi_d_a0_a4_proc_1
     + 1120 pi_d_a0_a5_proc_1 + 1120 pi_d_a0_a6_proc_1 + 1120 pi_d_a0_a11_proc_1
     + 1120 pi_d_a0_a12_proc_1 + 1120 pi_d_a0_a13_proc_1
     + 1120 pi_d_a0_a14_proc_1 + pi_y1_a0 + pi_y2_a0_proc_1 >= 0
 c5: - pi_p_a0_a1 + pi_p_a1_a2 + pi_p_a1_a6 - pi_p_a9_a1 - pi_p_a6_a1
     - pi_d_a0_a1_proc_0 - pi_d_a0_a1_proc_1 + pi_d_a1_a0_proc_0
     + pi_d_a1_a0_proc_1 + pi_d_a1_a2_proc_0 + pi_d_a1_a2_proc_1
     - pi_d_a2_a1_proc_0 - pi_d_a2_a1_proc_1 + pi_d_a1_a3_proc_0
     + pi_d_a1_a3_proc_1 - pi_d_a3_a1_proc_0 - pi_d_a3_a1_proc_1
     + pi_d_a1_a4_proc_0 + pi_d_a1_a4_proc_1 - pi_d_a4_a1_proc_0
     - pi_d_a4_a1_proc_1 + pi_d_a1_a5_proc_0 + pi_d_a1_a5_proc_1
     - pi_d_a5_a1_proc_0 - pi_d_a5_a1_proc_1 + pi_d_a1_a6_proc_0
     + pi_d_a1_a6_proc_1 - pi_d_a6_a1_proc_0 - pi_d_a6_a1_proc_1
     + pi_d_a1_a7_proc_0 - pi_d_a7_a1_proc_0 + pi_d_a1_a8_proc_0
     - pi_d_a8_a1_proc_0 + pi_d_a1_a9_proc_0 - pi_d_a9_a1_proc_0
     + pi_d_a1_a10_proc_0 - pi_d_a10_a1_proc_0 + pi_d_a1_a11_proc_0
     + pi_d_a1_a11_proc_1 - pi_d_a11_a1_proc_0 - pi_d_a11_a1_proc_1
     + pi_d_a1_a12_proc_0 + pi_d_a1_a12_proc_1 - pi_d_a12_a1_proc_0
     - pi_d_a12_a1_proc_1 + pi_d_a1_a13_proc_1 - pi_d_a13_a1_proc_1
     + pi_d_a1_a14_proc_1 - pi_d_a14_a1_proc_1 >= 0
 c6: 1199 pi_p_a1_a2 + 1199 pi_p_a1_a6 + 1199 pi_d_a1_a0_proc_0
     + 1199 pi_d_a1_a2_proc_0 + 1199 pi_d_a1_a3_proc_0 + 1199 pi_d_a1_a4_proc_0
     + 1199 pi_d_a1_a5_proc_0 + 1199 pi_d_a1_a6_proc_0 + 1199 pi_d_a1_a7_proc_0
     + 1199 pi_d_a1_a8_proc_0 + 1199 pi_d_a1_a9_proc_0 + 1199 pi_d_a1_a10_proc_0
     + 1199 pi_d_a1_a11_proc_0 + 1199 pi_d_a1_a12_proc_0 + pi_y1_a1
     + pi_y2_a1_proc_0 >= 0
 c7: 846 pi_p_a1_a2 + 846 pi_p_a1_a6 + 846 pi_d_a1_a0_proc_1
     + 846 pi_d_a1_a2_proc_1 + 846 pi_d_a1_a3_proc_1 + 846 pi_d_a1_a4_proc_1
     + 846 pi_d_a1_a5_proc_1 + 846 pi_d_a1_a6_proc_1 + 846 pi_d_a1_a11_proc_1
     + 846 pi_d_a1_a12_proc_1 + 846 pi_d_a1_a13_proc_1 + 846 pi_d_a1_a14_proc_1
     + pi_y1_a1 + pi_y2_a1_proc_1 >= 0
 c8: - pi_p_a1_a2 - pi_p_a3_a2 + pi_p_a2_a4 + pi_p_a2_a9 - pi_d_a0_a2_proc_0
     - pi_d_a0_a2_proc_1 + pi_d_a2_a0_proc_0 + pi_d_a2_a0_proc_1
     - pi_d_a1_a2_proc_0 - pi_d_a1_a2_proc_1 + pi_d_a2_a1_proc_0
     + pi_d_a2_a1_proc_1 + pi_d_a2_a3_proc_0 + pi_d_a2_a3_proc_1
     - pi_d_a3_a2_proc_0 - pi_d_a3_a2_proc_1 + pi_d_a2_a4_proc_0
     + pi_d_a2_a4_proc_1 - pi_d_a4_a2_proc_0 - pi_d_a4_a2_proc_1
     + pi_d_a2_a5_proc_0 + pi_d_a2_a5_proc_1 - pi_d_a5_a2_proc_0
     - pi_d_a5_a2_proc_1 + pi_d_a2_a6_proc_0 + pi_d_a2_a6_proc_1
     - pi_d_a6_a2_proc_0 - pi_d_a6_a2_proc_1 + pi_d_a2_a7_proc_0
     - pi_d_a7_a2_proc_0 + pi_d_a2_a8_proc_0 - pi_d_a8_a2_proc_0
     + pi_d_a2_a9_proc_0 - pi_d_a9_a2_proc_0 + pi_d_a2_a10_proc_0
     - pi_d_a10_a2_proc_0 + pi_d_a2_a11_proc_0 + pi_d_a2_a11_proc_1
     - pi_d_a11_a2_proc_0 - pi_d_a11_a2_proc_1 + pi_d_a2_a12_proc_0
     + pi_d_a2_a12_proc_1 - pi_d_a12_a2_proc_0 - pi_d_a12_a2_proc_1
     + pi_d_a2_a13_proc_1 - pi_d_a13_a2_proc_1 + pi_d_a2_a14_proc_1
     - pi_d_a14_a2_proc_1 >= 0
 c9: 781 pi_p_a2_a4 + 781 pi_p_a2_a9 + 781 pi_d_a2_a0_proc_0
     + 781 pi_d_a2_a1_proc_0 + 781 pi_d_a2_a3_proc_0 + 781 pi_d_a2_a4_proc_0
     + 781 pi_d_a2_a5_proc_0 + 781 pi_d_a2_a6_proc_0 + 781 pi_d_a2_a7_proc_0
     + 781 pi_d_a2_a8_proc_0 + 781 pi_d_a2_a9_proc_0 + 781 pi_d_a2_a10_proc_0
     + 781 pi_d_a2_a11_proc_0 + 781 pi_d_a2_a12_proc_0 + pi_y1_a2
     + pi_y2_a2_proc_0 >= 0
 c10: 1141 pi_p_a2_a4 + 1141 pi_p_a2_a9 + 1141 pi_d_a2_a0_proc_1
      + 1141 pi_d_a2_a1_proc_1 + 1141 pi_d_a2_a3_proc_1 + 1141 pi_d_a2_a4_proc_1
      + 1141 pi_d_a2_a5_proc_1 + 1141 pi_d_a2_a6_proc_1
      + 1141 pi_d_a2_a11_proc_1 + 1141 pi_d_a2_a12_proc_1
      + 1141 pi_d_a2_a13_proc_1 + 1141 pi_d_a2_a14_proc_1 + pi_y1_a2
      + pi_y2_a2_proc_1 >= 0
 c11: pi_p_a3_a2 - pi_p_a12_a3 - pi_d_a0_a3_proc_0 - pi_d_a0_a3_proc_1
      + pi_d_a3_a0_proc_0 + pi_d_a3_a0_proc_1 - pi_d_a1_a3_proc_0
      - pi_d_a1_a3_proc_1 + pi_d_a3_a1_proc_0 + pi_d_a3_a1_proc_1
      - pi_d_a2_a3_proc_0 - pi_d_a2_a3_proc_1 + pi_d_a3_a2_proc_0
      + pi_d_a3_a2_proc_1 + pi_d_a3_a4_proc_0 + pi_d_a3_a4_proc_1
      - pi_d_a4_a3_proc_0 - pi_d_a4_a3_proc_1 + pi_d_a3_a5_proc_0
      + pi_d_a3_a5_proc_1 - pi_d_a5_a3_proc_0 - pi_d_a5_a3_proc_1
      + pi_d_a3_a6_proc_0 + pi_d_a3_a6_proc_1 - pi_d_a6_a3_proc_0
      - pi_d_a6_a3_proc_1 + pi_d_a3_a7_proc_0 - pi_d_a7_a3_proc_0
      + pi_d_a3_a8_proc_0 - pi_d_a8_a3_proc_0 + pi_d_a3_a9_proc_0
      - pi_d_a9_a3_proc_0 + pi_d_a3_a10_proc_0 - pi_d_a10_a3_proc_0
      + pi_d_a3_a11_proc_0 + pi_d_a3_a11_proc_1 - pi_d_a11_a3_proc_0
      - pi_d_a11_a3_proc_1 + pi_d_a3_a12_proc_0 + pi_d_a3_a12_proc_1
      - pi_d_a12_a3_proc_0 - pi_d_a12_a3_proc_1 + pi_d_a3_a13_proc_1
      - pi_d_a13_a3_proc_1 + pi_d_a3_a14_proc_1 - pi_d_a14_a3_proc_1 >= 0
 c12: 1050 pi_p_a3_a2 + 1050 pi_d_a3_a0_proc_0 + 1050 pi_d_a3_a1_proc_0
      + 1050 pi_d_a3_a2_proc_0 + 1050 pi_d_a3_a4_proc_0 + 1050 pi_d_a3_a5_proc_0
      + 1050 pi_d_a3_a6_proc_0 + 1050 pi_d_a3_a7_proc_0 + 1050 pi_d_a3_a8_proc_0
      + 1050 pi_d_a3_a9_proc_0 + 1050 pi_d_a3_a10_proc_0
      + 1050 pi_d_a3_a11_proc_0 + 1050 pi_d_a3_a12_proc_0 + pi_y1_a3
      + pi_y2_a3_proc_0 >= 0
 c13: 879 pi_p_a3_a2 + 879 pi_d_a3_a0_proc_1 + 879 pi_d_a3_a1_proc_1
      + 879 pi_d_a3_a2_proc_1 + 879 pi_d_a3_a4_proc_1 + 879 pi_d_a3_a5_proc_1
      + 879 pi_d_a3_a6_proc_1 + 879 pi_d_a3_a11_proc_1 + 879 pi_d_a3_a12_proc_1
      + 879 pi_d_a3_a13_proc_1 + 879 pi_d_a3_a14_proc_1 + pi_y1_a3
      + pi_y2_a3_proc_1 >= 0
 c14: - pi_p_a2_a4 + pi_p_a4_a7 - pi_p_a10_a4 + pi_p_a4_a9 + pi_p_a4_a10
      - pi_d_a0_a4_proc_0 - pi_d_a0_a4_proc_1 + pi_d_a4_a0_proc_0
      + pi_d_a4_a0_proc_1 - pi_d_a1_a4_proc_0 - pi_d_a1_a4_proc_1
      + pi_d_a4_a1_proc_0 + pi_d_a4_a1_proc_1 - pi_d_a2_a4_proc_0
      - pi_d_a2_a4_proc_1 + pi_d_a4_a2_proc_0 + pi_d_a4_a2_proc_1
      - pi_d_a3_a4_proc_0 - pi_d_a3_a4_proc_1 + pi_d_a4_a3_proc_0
      + pi_d_a4_a3_proc_1 + pi_d_a4_a5_proc_0 + pi_d_a4_a5_proc_1
      - pi_d_a5_a4_proc_0 - pi_d_a5_a4_proc_1 + pi_d_a4_a6_proc_0
      + pi_d_a4_a6_proc_1 - pi_d_a6_a4_proc_0 - pi_d_a6_a4_proc_1
      + pi_d_a4_a7_proc_0 - pi_d_a7_a4_proc_0 + pi_d_a4_a8_proc_0
      - pi_d_a8_a4_proc_0 + pi_d_a4_a9_proc_0 - pi_d_a9_a4_proc_0
      + pi_d_a4_a10_proc_0 - pi_d_a10_a4_proc_0 + pi_d_a4_a11_proc_0
      + pi_d_a4_a11_proc_1 - pi_d_a11_a4_proc_0 - pi_d_a11_a4_proc_1
      + pi_d_a4_a12_proc_0 + pi_d_a4_a12_proc_1 - pi_d_a12_a4_proc_0
      - pi_d_a12_a4_proc_1 + pi_d_a4_a13_proc_1 - pi_d_a13_a4_proc_1
      + pi_d_a4_a14_proc_1 - pi_d_a14_a4_proc_1 >= 0
 c15: 1291 pi_p_a4_a7 + 1291 pi_p_a4_a9 + 1291 pi_p_a4_a10
      + 1291 pi_d_a4_a0_proc_0 + 1291 pi_d_a4_a1_proc_0 + 1291 pi_d_a4_a2_proc_0
      + 1291 pi_d_a4_a3_proc_0 + 1291 pi_d_a4_a5_proc_0 + 1291 pi_d_a4_a6_proc_0
      + 1291 pi_d_a4_a7_proc_0 + 1291 pi_d_a4_a8_proc_0 + 1291 pi_d_a4_a9_proc_0
      + 1291 pi_d_a4_a10_proc_0 + 1291 pi_d_a4_a11_proc_0
      + 1291 pi_d_a4_a12_proc_0 + pi_y1_a4 + pi_y2_a4_proc_0 >= 0
 c16: 858 pi_p_a4_a7 + 858 pi_p_a4_a9 + 858 pi_p_a4_a10 + 858 pi_d_a4_a0_proc_1
      + 858 pi_d_a4_a1_proc_1 + 858 pi_d_a4_a2_proc_1 + 858 pi_d_a4_a3_proc_1
      + 858 pi_d_a4_a5_proc_1 + 858 pi_d_a4_a6_proc_1 + 858 pi_d_a4_a11_proc_1
      + 858 pi_d_a4_a12_proc_1 + 858 pi_d_a4_a13_proc_1 + 858 pi_d_a4_a14_proc_1
      + pi_y1_a4 + pi_y2_a4_proc_1 >= 0
 c17: pi_p_a5_a0 - pi_p_a6_a5 - pi_d_a0_a5_proc_0 - pi_d_a0_a5_proc_1
      + pi_d_a5_a0_proc_0 + pi_d_a5_a0_proc_1 - pi_d_a1_a5_proc_0
      - pi_d_a1_a5_proc_1 + pi_d_a5_a1_proc_0 + pi_d_a5_a1_proc_1
      - pi_d_a2_a5_proc_0 - pi_d_a2_a5_proc_1 + pi_d_a5_a2_proc_0
      + pi_d_a5_a2_proc_1 - pi_d_a3_a5_proc_0 - pi_d_a3_a5_proc_1
      + pi_d_a5_a3_proc_0 + pi_d_a5_a3_proc_1 - pi_d_a4_a5_proc_0
      - pi_d_a4_a5_proc_1 + pi_d_a5_a4_proc_0 + pi_d_a5_a4_proc_1
      + pi_d_a5_a6_proc_0 + pi_d_a5_a6_proc_1 - pi_d_a6_a5_proc_0
      - pi_d_a6_a5_proc_1 + pi_d_a5_a7_proc_0 - pi_d_a7_a5_proc_0
      + pi_d_a5_a8_proc_0 - pi_d_a8_a5_proc_0 + pi_d_a5_a9_proc_0
      - pi_d_a9_a5_proc_0 + pi_d_a5_a10_proc_0 - pi_d_a10_a5_proc_0
      + pi_d_a5_a11_proc_0 + pi_d_a5_a11_proc_1 - pi_d_a11_a5_proc_0
      - pi_d_a11_a5_proc_1 + pi_d_a5_a12_proc_0 + pi_d_a5_a12_proc_1
      - pi_d_a12_a5_proc_0 - pi_d_a12_a5_proc_1 + pi_d_a5_a13_proc_1
      - pi_d_a13_a5_proc_1 + pi_d_a5_a14_proc_1 - pi_d_a14_a5_proc_1 >= 0
 c18: 731 pi_p_a5_a0 + 731 pi_d_a5_a0_proc_0 + 731 pi_d_a5_a1_proc_0
      + 731 pi_d_a5_a2_proc_0 + 731 pi_d_a5_a3_proc_0 + 731 pi_d_a5_a4_proc_0
      + 731 pi_d_a5_a6_proc_0 + 731 pi_d_a5_a7_proc_0 + 731 pi_d_a5_a8_proc_0
      + 731 pi_d_a5_a9_proc_0 + 731 pi_d_a5_a10_proc_0 + 731 pi_d_a5_a11_proc_0
      + 731 pi_d_a5_a12_proc_0 + pi_y1_a5 + pi_y2_a5_proc_0 >= 0
 c19: 1053 pi_p_a5_a0 + 1053 pi_d_a5_a0_proc_1 + 1053 pi_d_a5_a1_proc_1
      + 1053 pi_d_a5_a2_proc_1 + 1053 pi_d_a5_a3_proc_1 + 1053 pi_d_a5_a4_proc_1
      + 1053 pi_d_a5_a6_proc_1 + 1053 pi_d_a5_a11_proc_1
      + 1053 pi_d_a5_a12_proc_1 + 1053 pi_d_a5_a13_proc_1
      + 1053 pi_d_a5_a14_proc_1 + pi_y1_a5 + pi_y2_a5_proc_1 >= 0
 c20: - pi_p_a1_a6 + pi_p_a6_a11 + pi_p_a6_a5 + pi_p_a6_a1 - pi_d_a0_a6_proc_0
      - pi_d_a0_a6_proc_1 + pi_d_a6_a0_proc_0 + pi_d_a6_a0_proc_1
      - pi_d_a1_a6_proc_0 - pi_d_a1_a6_proc_1 + pi_d_a6_a1_proc_0
      + pi_d_a6_a1_proc_1 - pi_d_a2_a6_proc_0 - pi_d_a2_a6_proc_1
      + pi_d_a6_a2_proc_0 + pi_d_a6_a2_proc_1 - pi_d_a3_a6_proc_0
      - pi_d_a3_a6_proc_1 + pi_d_a6_a3_proc_0 + pi_d_a6_a3_proc_1
      - pi_d_a4_a6_proc_0 - pi_d_a4_a6_proc_1 + pi_d_a6_a4_proc_0
      + pi_d_a6_a4_proc_1 - pi_d_a5_a6_proc_0 - pi_d_a5_a6_proc_1
      + pi_d_a6_a5_proc_0 + pi_d_a6_a5_proc_1 + pi_d_a6_a7_proc_0
      - pi_d_a7_a6_proc_0 + pi_d_a6_a8_proc_0 - pi_d_a8_a6_proc_0
      + pi_d_a6_a9_proc_0 - pi_d_a9_a6_proc_0 + pi_d_a6_a10_proc_0
      - pi_d_a10_a6_proc_0 + pi_d_a6_a11_proc_0 + pi_d_a6_a11_proc_1
      - pi_d_a11_a6_proc_0 - pi_d_a11_a6_proc_1 + pi_d_a6_a12_proc_0
      + pi_d_a6_a12_proc_1 - pi_d_a12_a6_proc_0 - pi_d_a12_a6_proc_1
      + pi_d_a6_a13_proc_1 - pi_d_a13_a6_proc_1 + pi_d_a6_a14_proc_1
      - pi_d_a14_a6_proc_1 >= 0
 c21: 810 pi_p_a6_a11 + 810 pi_p_a6_a5 + 810 pi_p_a6_a1 + 810 pi_d_a6_a0_proc_0
      + 810 pi_d_a6_a1_proc_0 + 810 pi_d_a6_a2_proc_0 + 810 pi_d_a6_a3_proc_0
      + 810 pi_d_a6_a4_proc_0 + 810 pi_d_a6_a5_proc_0 + 810 pi_d_a6_a7_proc_0
      + 810 pi_d_a6_a8_proc_0 + 810 pi_d_a6_a9_proc_0 + 810 pi_d_a6_a10_proc_0
      + 810 pi_d_a6_a11_proc_0 + 810 pi_d_a6_a12_proc_0 + pi_y1_a6
      + pi_y2_a6_proc_0 >= 0
 c22: 867 pi_p_a6_a11 + 867 pi_p_a6_a5 + 867 pi_p_a6_a1 + 867 pi_d_a6_a0_proc_1
      + 867 pi_d_a6_a1_proc_1 + 867 pi_d_a6_a2_proc_1 + 867 pi_d_a6_a3_proc_1
      + 867 pi_d_a6_a4_proc_1 + 867 pi_d_a6_a5_proc_1 + 867 pi_d_a6_a11_proc_1
      + 867 pi_d_a6_a12_proc_1 + 867 pi_d_a6_a13_proc_1 + 867 pi_d_a6_a14_proc_1
      + pi_y1_a6 + pi_y2_a6_proc_1 >= 0
 c23: - pi_p_a4_a7 + pi_p_a7_a11 + pi_p_a7_a12 - pi_d_a0_a7_proc_0
      + pi_d_a7_a0_proc_0 - pi_d_a1_a7_proc_0 + pi_d_a7_a1_proc_0
      - pi_d_a2_a7_proc_0 + pi_d_a7_a2_proc_0 - pi_d_a3_a7_proc_0
      + pi_d_a7_a3_proc_0 - pi_d_a4_a7_proc_0 + pi_d_a7_a4_proc_0
      - pi_d_a5_a7_proc_0 + pi_d_a7_a5_proc_0 - pi_d_a6_a7_proc_0
      + pi_d_a7_a6_proc_0 + pi_d_a7_a8_proc_0 - pi_d_a8_a7_proc_0
      + pi_d_a7_a9_proc_0 - pi_d_a9_a7_proc_0 + pi_d_a7_a10_proc_0
      - pi_d_a10_a7_proc_0 + pi_d_a7_a11_proc_0 - pi_d_a11_a7_proc_0
      + pi_d_a7_a12_proc_0 - pi_d_a12_a7_proc_0 >= 0
 c24: 1066 pi_p_a7_a11 + 1066 pi_p_a7_a12 + 1066 pi_d_a7_a0_proc_0
      + 1066 pi_d_a7_a1_proc_0 + 1066 pi_d_a7_a2_proc_0 + 1066 pi_d_a7_a3_proc_0
      + 1066 pi_d_a7_a4_proc_0 + 1066 pi_d_a7_a5_proc_0 + 1066 pi_d_a7_a6_proc_0
      + 1066 pi_d_a7_a8_proc_0 + 1066 pi_d_a7_a9_proc_0
      + 1066 pi_d_a7_a10_proc_0 + 1066 pi_d_a7_a11_proc_0
      + 1066 pi_d_a7_a12_proc_0 + pi_y1_a7 + pi_y2_a7_proc_0 >= 0
 c25: - pi_p_a0_a8 + pi_p_a8_a9 + pi_p_a8_a12 + pi_p_a8_a0 - pi_d_a0_a8_proc_0
      + pi_d_a8_a0_proc_0 - pi_d_a1_a8_proc_0 + pi_d_a8_a1_proc_0
      - pi_d_a2_a8_proc_0 + pi_d_a8_a2_proc_0 - pi_d_a3_a8_proc_0
      + pi_d_a8_a3_proc_0 - pi_d_a4_a8_proc_0 + pi_d_a8_a4_proc_0
      - pi_d_a5_a8_proc_0 + pi_d_a8_a5_proc_0 - pi_d_a6_a8_proc_0
      + pi_d_a8_a6_proc_0 - pi_d_a7_a8_proc_0 + pi_d_a8_a7_proc_0
      + pi_d_a8_a9_proc_0 - pi_d_a9_a8_proc_0 + pi_d_a8_a10_proc_0
      - pi_d_a10_a8_proc_0 + pi_d_a8_a11_proc_0 - pi_d_a11_a8_proc_0
      + pi_d_a8_a12_proc_0 - pi_d_a12_a8_proc_0 >= 0
 c26: 1098 pi_p_a8_a9 + 1098 pi_p_a8_a12 + 1098 pi_p_a8_a0
      + 1098 pi_d_a8_a0_proc_0 + 1098 pi_d_a8_a1_proc_0 + 1098 pi_d_a8_a2_proc_0
      + 1098 pi_d_a8_a3_proc_0 + 1098 pi_d_a8_a4_proc_0 + 1098 pi_d_a8_a5_proc_0
      + 1098 pi_d_a8_a6_proc_0 + 1098 pi_d_a8_a7_proc_0 + 1098 pi_d_a8_a9_proc_0
      + 1098 pi_d_a8_a10_proc_0 + 1098 pi_d_a8_a11_proc_0
      + 1098 pi_d_a8_a12_proc_0 + pi_y1_a8 + pi_y2_a8_proc_0 >= 0
 c27: pi_p_a9_a1 - pi_p_a8_a9 - pi_p_a4_a9 - pi_p_a2_a9 - pi_d_a0_a9_proc_0
      + pi_d_a9_a0_proc_0 - pi_d_a1_a9_proc_0 + pi_d_a9_a1_proc_0
      - pi_d_a2_a9_proc_0 + pi_d_a9_a2_proc_0 - pi_d_a3_a9_proc_0
      + pi_d_a9_a3_proc_0 - pi_d_a4_a9_proc_0 + pi_d_a9_a4_proc_0
      - pi_d_a5_a9_proc_0 + pi_d_a9_a5_proc_0 - pi_d_a6_a9_proc_0
      + pi_d_a9_a6_proc_0 - pi_d_a7_a9_proc_0 + pi_d_a9_a7_proc_0
      - pi_d_a8_a9_proc_0 + pi_d_a9_a8_proc_0 + pi_d_a9_a10_proc_0
      - pi_d_a10_a9_proc_0 + pi_d_a9_a11_proc_0 - pi_d_a11_a9_proc_0
      + pi_d_a9_a12_proc_0 - pi_d_a12_a9_proc_0 >= 0
 c28: 1042 pi_p_a9_a1 + 1042 pi_d_a9_a0_proc_0 + 1042 pi_d_a9_a1_proc_0
      + 1042 pi_d_a9_a2_proc_0 + 1042 pi_d_a9_a3_proc_0 + 1042 pi_d_a9_a4_proc_0
      + 1042 pi_d_a9_a5_proc_0 + 1042 pi_d_a9_a6_proc_0 + 1042 pi_d_a9_a7_proc_0
      + 1042 pi_d_a9_a8_proc_0 + 1042 pi_d_a9_a10_proc_0
      + 1042 pi_d_a9_a11_proc_0 + 1042 pi_d_a9_a12_proc_0 + pi_y1_a9
      + pi_y2_a9_proc_0 >= 0
 c29: pi_p_a10_a4 - pi_p_a4_a10 + pi_p_a10_a14 - pi_d_a0_a10_proc_0
      + pi_d_a10_a0_proc_0 - pi_d_a1_a10_proc_0 + pi_d_a10_a1_proc_0
      - pi_d_a2_a10_proc_0 + pi_d_a10_a2_proc_0 - pi_d_a3_a10_proc_0
      + pi_d_a10_a3_proc_0 - pi_d_a4_a10_proc_0 + pi_d_a10_a4_proc_0
      - pi_d_a5_a10_proc_0 + pi_d_a10_a5_proc_0 - pi_d_a6_a10_proc_0
      + pi_d_a10_a6_proc_0 - pi_d_a7_a10_proc_0 + pi_d_a10_a7_proc_0
      - pi_d_a8_a10_proc_0 + pi_d_a10_a8_proc_0 - pi_d_a9_a10_proc_0
      + pi_d_a10_a9_proc_0 + pi_d_a10_a11_proc_0 - pi_d_a11_a10_proc_0
      + pi_d_a10_a12_proc_0 - pi_d_a12_a10_proc_0 >= 0
 c30: 1048 pi_p_a10_a4 + 1048 pi_p_a10_a14 + 1048 pi_d_a10_a0_proc_0
      + 1048 pi_d_a10_a1_proc_0 + 1048 pi_d_a10_a2_proc_0
      + 1048 pi_d_a10_a3_proc_0 + 1048 pi_d_a10_a4_proc_0
      + 1048 pi_d_a10_a5_proc_0 + 1048 pi_d_a10_a6_proc_0
      + 1048 pi_d_a10_a7_proc_0 + 1048 pi_d_a10_a8_proc_0
      + 1048 pi_d_a10_a9_proc_0 + 1048 pi_d_a10_a11_proc_0
      + 1048 pi_d_a10_a12_proc_0 + pi_y1_a10 + pi_y2_a10_proc_0 >= 0
 c31: - pi_p_a7_a11 - pi_p_a13_a11 - pi_p_a6_a11 + pi_p_a11_a14
      - pi_d_a0_a11_proc_0 - pi_d_a0_a11_proc_1 + pi_d_a11_a0_proc_0
      + pi_d_a11_a0_proc_1 - pi_d_a1_a11_proc_0 - pi_d_a1_a11_proc_1
      + pi_d_a11_a1_proc_0 + pi_d_a11_a1_proc_1 - pi_d_a2_a11_proc_0
      - pi_d_a2_a11_proc_1 + pi_d_a11_a2_proc_0 + pi_d_a11_a2_proc_1
      - pi_d_a3_a11_proc_0 - pi_d_a3_a11_proc_1 + pi_d_a11_a3_proc_0
      + pi_d_a11_a3_proc_1 - pi_d_a4_a11_proc_0 - pi_d_a4_a11_proc_1
      + pi_d_a11_a4_proc_0 + pi_d_a11_a4_proc_1 - pi_d_a5_a11_proc_0
      - pi_d_a5_a11_proc_1 + pi_d_a11_a5_proc_0 + pi_d_a11_a5_proc_1
      - pi_d_a6_a11_proc_0 - pi_d_a6_a11_proc_1 + pi_d_a11_a6_proc_0
      + pi_d_a11_a6_proc_1 - pi_d_a7_a11_proc_0 + pi_d_a11_a7_proc_0
      - pi_d_a8_a11_proc_0 + pi_d_a11_a8_proc_0 - pi_d_a9_a11_proc_0
      + pi_d_a11_a9_proc_0 - pi_d_a10_a11_proc_0 + pi_d_a11_a10_proc_0
      + pi_d_a11_a12_proc_0 + pi_d_a11_a12_proc_1 - pi_d_a12_a11_proc_0
      - pi_d_a12_a11_proc_1 + pi_d_a11_a13_proc_1 - pi_d_a13_a11_proc_1
      + pi_d_a11_a14_proc_1 - pi_d_a14_a11_proc_1 >= 0
 c32: 848 pi_p_a11_a14 + 848 pi_d_a11_a0_proc_0 + 848 pi_d_a11_a1_proc_0
      + 848 pi_d_a11_a2_proc_0 + 848 pi_d_a11_a3_proc_0 + 848 pi_d_a11_a4_proc_0
      + 848 pi_d_a11_a5_proc_0 + 848 pi_d_a11_a6_proc_0 + 848 pi_d_a11_a7_proc_0
      + 848 pi_d_a11_a8_proc_0 + 848 pi_d_a11_a9_proc_0
      + 848 pi_d_a11_a10_proc_0 + 848 pi_d_a11_a12_proc_0 + pi_y1_a11
      + pi_y2_a11_proc_0 >= 0
 c33: 866 pi_p_a11_a14 + 866 pi_d_a11_a0_proc_1 + 866 pi_d_a11_a1_proc_1
      + 866 pi_d_a11_a2_proc_1 + 866 pi_d_a11_a3_proc_1 + 866 pi_d_a11_a4_proc_1
      + 866 pi_d_a11_a5_proc_1 + 866 pi_d_a11_a6_proc_1
      + 866 pi_d_a11_a12_proc_1 + 866 pi_d_a11_a13_proc_1
      + 866 pi_d_a11_a14_proc_1 + pi_y1_a11 + pi_y2_a11_proc_1 >= 0
 c34: - pi_p_a7_a12 - pi_p_a13_a12 + pi_p_a12_a3 - pi_p_a8_a12 + pi_p_a12_a0
      - pi_d_a0_a12_proc_0 - pi_d_a0_a12_proc_1 + pi_d_a12_a0_proc_0
      + pi_d_a12_a0_proc_1 - pi_d_a1_a12_proc_0 - pi_d_a1_a12_proc_1
      + pi_d_a12_a1_proc_0 + pi_d_a12_a1_proc_1 - pi_d_a2_a12_proc_0
      - pi_d_a2_a12_proc_1 + pi_d_a12_a2_proc_0 + pi_d_a12_a2_proc_1
      - pi_d_a3_a12_proc_0 - pi_d_a3_a12_proc_1 + pi_d_a12_a3_proc_0
      + pi_d_a12_a3_proc_1 - pi_d_a4_a12_proc_0 - pi_d_a4_a12_proc_1
      + pi_d_a12_a4_proc_0 + pi_d_a12_a4_proc_1 - pi_d_a5_a12_proc_0
      - pi_d_a5_a12_proc_1 + pi_d_a12_a5_proc_0 + pi_d_a12_a5_proc_1
      - pi_d_a6_a12_proc_0 - pi_d_a6_a12_proc_1 + pi_d_a12_a6_proc_0
      + pi_d_a12_a6_proc_1 - pi_d_a7_a12_proc_0 + pi_d_a12_a7_proc_0
      - pi_d_a8_a12_proc_0 + pi_d_a12_a8_proc_0 - pi_d_a9_a12_proc_0
      + pi_d_a12_a9_proc_0 - pi_d_a10_a12_proc_0 + pi_d_a12_a10_proc_0
      - pi_d_a11_a12_proc_0 - pi_d_a11_a12_proc_1 + pi_d_a12_a11_proc_0
      + pi_d_a12_a11_proc_1 + pi_d_a12_a13_proc_1 - pi_d_a13_a12_proc_1
      + pi_d_a12_a14_proc_1 - pi_d_a14_a12_proc_1 >= 0
 c35: 1271 pi_p_a12_a3 + 1271 pi_p_a12_a0 + 1271 pi_d_a12_a0_proc_0
      + 1271 pi_d_a12_a1_proc_0 + 1271 pi_d_a12_a2_proc_0
      + 1271 pi_d_a12_a3_proc_0 + 1271 pi_d_a12_a4_proc_0
      + 1271 pi_d_a12_a5_proc_0 + 1271 pi_d_a12_a6_proc_0
      + 1271 pi_d_a12_a7_proc_0 + 1271 pi_d_a12_a8_proc_0
      + 1271 pi_d_a12_a9_proc_0 + 1271 pi_d_a12_a10_proc_0
      + 1271 pi_d_a12_a11_proc_0 + pi_y1_a12 + pi_y2_a12_proc_0 >= 0
 c36: 1088 pi_p_a12_a3 + 1088 pi_p_a12_a0 + 1088 pi_d_a12_a0_proc_1
      + 1088 pi_d_a12_a1_proc_1 + 1088 pi_d_a12_a2_proc_1
      + 1088 pi_d_a12_a3_proc_1 + 1088 pi_d_a12_a4_proc_1
      + 1088 pi_d_a12_a5_proc_1 + 1088 pi_d_a12_a6_proc_1
      + 1088 pi_d_a12_a11_proc_1 + 1088 pi_d_a12_a13_proc_1
      + 1088 pi_d_a12_a14_proc_1 + pi_y1_a12 + pi_y2_a12_proc_1 >= 0
 c37: pi_p_a13_a12 - pi_p_a14_a13 + pi_p_a13_a11 - pi_d_a0_a13_proc_1
      + pi_d_a13_a0_proc_1 - pi_d_a1_a13_proc_1 + pi_d_a13_a1_proc_1
      - pi_d_a2_a13_proc_1 + pi_d_a13_a2_proc_1 - pi_d_a3_a13_proc_1
      + pi_d_a13_a3_proc_1 - pi_d_a4_a13_proc_1 + pi_d_a13_a4_proc_1
      - pi_d_a5_a13_proc_1 + pi_d_a13_a5_proc_1 - pi_d_a6_a13_proc_1
      + pi_d_a13_a6_proc_1 - pi_d_a11_a13_proc_1 + pi_d_a13_a11_proc_1
      - pi_d_a12_a13_proc_1 + pi_d_a13_a12_proc_1 + pi_d_a13_a14_proc_1
      - pi_d_a14_a13_proc_1 >= 0
 c38: 548 pi_p_a13_a12 + 548 pi_p_a13_a11 + 548 pi_d_a13_a0_proc_1
      + 548 pi_d_a13_a1_proc_1 + 548 pi_d_a13_a2_proc_1 + 548 pi_d_a13_a3_proc_1
      + 548 pi_d_a13_a4_proc_1 + 548 pi_d_a13_a5_proc_1 + 548 pi_d_a13_a6_proc_1
      + 548 pi_d_a13_a11_proc_1 + 548 pi_d_a13_a12_proc_1
      + 548 pi_d_a13_a14_proc_1 + pi_y1_a13 + pi_y2_a13_proc_1 >= 0
 c39: pi_p_a14_a13 - pi_p_a10_a14 - pi_p_a11_a14 - pi_d_a0_a14_proc_1
      + pi_d_a14_a0_proc_1 - pi_d_a1_a14_proc_1 + pi_d_a14_a1_proc_1
      - pi_d_a2_a14_proc_1 + pi_d_a14_a2_proc_1 - pi_d_a3_a14_proc_1
      + pi_d_a14_a3_proc_1 - pi_d_a4_a14_proc_1 + pi_d_a14_a4_proc_1
      - pi_d_a5_a14_proc_1 + pi_d_a14_a5_proc_1 - pi_d_a6_a14_proc_1
      + pi_d_a14_a6_proc_1 - pi_d_a11_a14_proc_1 + pi_d_a14_a11_proc_1
      - pi_d_a12_a14_proc_1 + pi_d_a14_a12_proc_1 - pi_d_a13_a14_proc_1
      + pi_d_a14_a13_proc_1 >= 0
 c40: 1199 pi_p_a14_a13 + 1199 pi_p_a14_a14 + 1199 pi_d_a14_a0_proc_1
      + 1199 pi_d_a14_a1_proc_1 + 1199 pi_d_a14_a2_proc_1
      + 1199 pi_d_a14_a3_proc_1 + 1199 pi_d_a14_a4_proc_1
      + 1199 pi_d_a14_a5_proc_1 + 1199 pi_d_a14_a6_proc_1
      + 1199 pi_d_a14_a11_proc_1 + 1199 pi_d_a14_a12_proc_1
      + 1199 pi_d_a14_a13_proc_1 + pi_y1_a14 + pi_y2_a14_proc_1 >= 0

Bounds
       pi_y1_a0 Free
       pi_y1_a1 Free
       pi_y1_a2 Free
       pi_y1_a3 Free
       pi_y1_a4 Free
       pi_y1_a5 Free
       pi_y1_a6 Free
       pi_y1_a7 Free
       pi_y1_a8 Free
       pi_y1_a9 Free
       pi_y1_a10 Free
       pi_y1_a11 Free
       pi_y1_a12 Free
       pi_y1_a13 Free
       pi_y1_a14 Free
End
